(set-info :smt-lib-version 2.0)
(set-info :category "industrial")
(set-info :boogie-vc-id bad)
(set-option :smt.auto-config false)
(set-option :smt.mbqi false)
(set-option :sat.random_seed 488)
(set-option :smt.random_seed 599)
(set-option :nlsat.seed 611)
(set-option :memory_max_size 6000)
(declare-sort |T@U| 0)
(declare-sort RegExStr 0)
(declare-sort RMode 0)
(declare-sort |T@T| 0)
(declare-fun real_pow (Real Real) Real)
(declare-fun UOrdering2 (|T@U| |T@U|) Bool)
(declare-fun UOrdering3 (|T@T| |T@U| |T@U|) Bool)
(declare-fun tickleBool (Bool) Bool)
(declare-fun Ctor (T@T) Int)
(declare-fun intType () T@T)
(declare-fun realType () T@T)
(declare-fun boolType () T@T)
(declare-fun rmodeType () T@T)
(declare-fun int_2_U (Int) T@U)
(declare-fun U_2_int (T@U) Int)
(declare-fun real_2_U (Real) T@U)
(declare-fun U_2_real (T@U) Real)
(declare-fun bool_2_U (Bool) T@U)
(declare-fun U_2_bool (T@U) Bool)
(declare-fun rmode_2_U (RMode) T@U)
(declare-fun U_2_rmode (T@U) RMode)
(declare-fun MapType0Select (T@T T@T T@T T@U T@U T@U) T@U)
(declare-fun MapType0Store (T@T T@T T@T T@U T@U T@U T@U) T@U)
(declare-fun NormalFieldType () T@T)
(declare-fun RefType () T@T)
(declare-fun $allocated () T@U)
(declare-fun IdenticalOnKnownLocations (T@U T@U T@U) Bool)
(declare-fun HasDirectPerm (T@T T@T T@U T@U T@U) Bool)
(declare-fun FrameTypeType () T@T)
(declare-fun MapType1Select (T@T T@T T@T T@T T@U T@U T@U) T@U)
(declare-fun MapType1Store (T@T T@T T@T T@T T@U T@U T@U T@U) T@U)
(declare-fun MapType1Type (T@T T@T) T@T)
(declare-fun MapType1TypeInv0 (T@T) T@T)
(declare-fun MapType1TypeInv1 (T@T) T@T)
(declare-fun IsPredicateField (T@T T@T T@U) Bool)
(declare-fun null () T@U)
(declare-fun PredicateMaskField (T@T T@U) T@U)
(declare-fun IsWandField (T@T T@T T@U) Bool)
(declare-fun WandMaskField (T@T T@U) T@U)
(declare-fun succHeap (T@U T@U) Bool)
(declare-fun succHeapTrans (T@U T@U) Bool)
(declare-fun ZeroMask () T@U)
(declare-fun NoPerm () Real)
(declare-fun ZeroPMask () T@U)
(declare-fun FullPerm () Real)
(declare-fun state (T@U T@U) Bool)
(declare-fun GoodMask (T@U) Bool)
(declare-fun sumMask (T@U T@U T@U) Bool)
(declare-fun ConditionalFrame (Real T@U) T@U)
(declare-fun EmptyFrame () T@U)
(declare-fun InsidePredicate (T@T T@T T@U T@U T@U T@U) Bool)
(declare-fun optsome (T@T T@U) T@U)
(declare-fun optnone (T@T) T@U)
(declare-fun optget (T@T T@U) T@U)
(declare-fun %lbl%+0 () Bool)
(declare-fun Heap@@9 () T@U)
(declare-fun Mask@@9 () T@U)
(declare-fun %lbl%@1 () Bool)
(declare-fun %lbl%+2 () Bool)
(declare-fun z3name!0 (T@U Real) T@U)
(assert (! (forall ((e_1py0 T@U)(Tpy0 T@T)) (! (not (= (optsome Tpy0 e_1py0) (optnone Tpy0))) :pattern ((optsome Tpy0 e_1py0)) )) :named A29))
(assert (! (forall ((o_3py0 T@U)(e_1@@0py0 T@U)(T@@0py0 T@T)) (! (and (or (not (= (optget T@@0py0 o_3py0) e_1@@0py0)) (= o_3py0 (optsome T@@0py0 e_1@@0py0))) (or (not (= o_3py0 (optsome T@@0py0 e_1@@0py0))) (= (optget T@@0py0 o_3py0) e_1@@0py0))) :pattern ((optget T@@0py0 o_3py0) (optsome T@@0py0 e_1@@0py0)) )) :named A30))
(declare-fun fresh_T@U_1 () T@U)
(declare-fun fresh_T@U_0 () T@U)
(declare-fun fresh_T@T_1 () T@T)
(declare-fun fresh_T@U_2 () T@U)
(declare-fun fresh_T@T_0 () T@T)
(declare-fun __dummy_A29T0@0__ (T@U) Bool)
(assert (! (__dummy_A29T0@0__ (optsome fresh_T@T_0 fresh_T@U_0)) :named Dummy_A29T0@0 ))
(declare-fun __dummy_A29T10@0__ (T@U T@U T@U) Bool)
(assert (! (__dummy_A29T10@0__ (optget fresh_T@T_0 fresh_T@U_2) (optget fresh_T@T_1 fresh_T@U_0) (optsome fresh_T@T_0 (optsome fresh_T@T_1 fresh_T@U_1))) :named Dummy_A29T10@0 ))
(declare-fun __dummy_A29T10@3__ (T@U T@U T@U) Bool)
(assert (! (__dummy_A29T10@3__ (optget fresh_T@T_0 fresh_T@U_0) (optget fresh_T@T_1 fresh_T@U_0) (optsome fresh_T@T_0 (optsome fresh_T@T_1 fresh_T@U_1))) :named Dummy_A29T10@3 ))
(declare-fun __dummy_A29T13@0__ (T@U T@U T@U) Bool)
(assert (! (__dummy_A29T13@0__ (optget fresh_T@T_0 fresh_T@U_0) (optget fresh_T@T_0 fresh_T@U_1) (optsome fresh_T@T_0 (optsome fresh_T@T_0 fresh_T@U_1))) :named Dummy_A29T13@0 ))
(declare-fun __dummy_A29T17@0__ (T@U T@U T@U) Bool)
(assert (! (__dummy_A29T17@0__ (optget fresh_T@T_0 fresh_T@U_1) (optsome fresh_T@T_0 fresh_T@U_1) (optsome fresh_T@T_0 (optget fresh_T@T_0 fresh_T@U_0))) :named Dummy_A29T17@0 ))
(declare-fun __dummy_A29T5@0__ (T@U T@U T@U) Bool)
(assert (! (__dummy_A29T5@0__ (optget fresh_T@T_0 fresh_T@U_0) (optsome fresh_T@T_0 fresh_T@U_2) (optsome fresh_T@T_0 (optget fresh_T@T_0 fresh_T@U_1))) :named Dummy_A29T5@0 ))
(declare-fun __dummy_A29T5@1__ (T@U T@U T@U) Bool)
(assert (! (__dummy_A29T5@1__ (optget fresh_T@T_0 fresh_T@U_0) (optsome fresh_T@T_0 (optget fresh_T@T_1 fresh_T@U_0)) (optsome fresh_T@T_1 fresh_T@U_2)) :named Dummy_A29T5@1 ))
(declare-fun __dummy_A29T5@2__ (T@U T@U T@U) Bool)
(assert (! (__dummy_A29T5@2__ (optget fresh_T@T_0 fresh_T@U_1) (optsome fresh_T@T_0 (optget fresh_T@T_1 fresh_T@U_0)) (optsome fresh_T@T_1 fresh_T@U_2)) :named Dummy_A29T5@2 ))
(declare-fun __dummy_A29T5@3__ (T@U T@U T@U) Bool)
(assert (! (__dummy_A29T5@3__ (optget fresh_T@T_0 fresh_T@U_1) (optsome fresh_T@T_0 (optget fresh_T@T_1 fresh_T@U_0)) (optsome fresh_T@T_1 fresh_T@U_0)) :named Dummy_A29T5@3 ))
(declare-fun __dummy_A29T6@1__ (T@U T@U T@U) Bool)
(assert (! (__dummy_A29T6@1__ (optget fresh_T@T_0 fresh_T@U_0) (optsome fresh_T@T_0 (optget fresh_T@T_1 fresh_T@U_1)) (optsome fresh_T@T_1 fresh_T@U_0)) :named Dummy_A29T6@1 ))
(declare-fun __dummy_A29T9@0__ (T@U T@U T@U) Bool)
(assert (! (__dummy_A29T9@0__ (optget fresh_T@T_0 fresh_T@U_0) (optget fresh_T@T_0 fresh_T@U_1) (optsome fresh_T@T_0 (optsome fresh_T@T_0 fresh_T@U_2))) :named Dummy_A29T9@0 ))
(declare-fun __dummy_A29T9@1__ (T@U T@U T@U) Bool)
(assert (! (__dummy_A29T9@1__ (optget fresh_T@T_0 fresh_T@U_1) (optget fresh_T@T_1 fresh_T@U_1) (optsome fresh_T@T_0 (optsome fresh_T@T_1 fresh_T@U_1))) :named Dummy_A29T9@1 ))
(declare-fun __dummy_A29T9@2__ (T@U T@U T@U) Bool)
(assert (! (__dummy_A29T9@2__ (optget fresh_T@T_0 fresh_T@U_0) (optget fresh_T@T_1 fresh_T@U_1) (optsome fresh_T@T_0 (optsome fresh_T@T_1 fresh_T@U_1))) :named Dummy_A29T9@2 ))
(declare-fun __dummy_A29T9@3__ (T@U T@U T@U) Bool)
(assert (! (__dummy_A29T9@3__ (optget fresh_T@T_0 fresh_T@U_0) (optget fresh_T@T_1 fresh_T@U_1) (optsome fresh_T@T_0 (optsome fresh_T@T_1 fresh_T@U_0))) :named Dummy_A29T9@3 ))
(declare-fun __dummy_A30_0T0@0__ (T@U T@U) Bool)
(assert (! (__dummy_A30_0T0@0__ (optget fresh_T@T_0 fresh_T@U_0) (optsome fresh_T@T_0 fresh_T@U_0)) :named Dummy_A30_0T0@0 ))
(declare-fun __dummy_A30_0T0@1__ (T@U T@U) Bool)
(assert (! (__dummy_A30_0T0@1__ (optget fresh_T@T_0 fresh_T@U_1) (optsome fresh_T@T_0 fresh_T@U_0)) :named Dummy_A30_0T0@1 ))
(declare-fun __dummy_A30_0T10@0__ (T@U T@U T@U) Bool)
(assert (! (__dummy_A30_0T10@0__ (optget fresh_T@T_0 (optnone fresh_T@T_0)) (optsome fresh_T@T_0 fresh_T@U_0) (optsome fresh_T@T_0 fresh_T@U_1)) :named Dummy_A30_0T10@0 ))
(declare-fun __dummy_A30_0T10@1__ (T@U T@U T@U) Bool)
(assert (! (__dummy_A30_0T10@1__ (optget fresh_T@T_0 (optnone fresh_T@T_1)) (optsome fresh_T@T_0 fresh_T@U_1) (optsome fresh_T@T_1 fresh_T@U_2)) :named Dummy_A30_0T10@1 ))
(declare-fun __dummy_A30_0T10@2__ (T@U T@U T@U T@U) Bool)
(assert (! (__dummy_A30_0T10@2__ (optget fresh_T@T_0 (optnone fresh_T@T_1)) (optsome fresh_T@T_0 fresh_T@U_0) (optsome fresh_T@T_0 fresh_T@U_1) (optsome fresh_T@T_1 fresh_T@U_2)) :named Dummy_A30_0T10@2 ))
(declare-fun __dummy_A30_0T12@0__ (T@U T@U T@U) Bool)
(assert (! (__dummy_A30_0T12@0__ (optget fresh_T@T_0 (optsome fresh_T@T_1 fresh_T@U_2)) (optsome fresh_T@T_0 fresh_T@U_0) (optsome fresh_T@T_0 fresh_T@U_2)) :named Dummy_A30_0T12@0 ))
(declare-fun __dummy_A30_0T12@1__ (T@U T@U) Bool)
(assert (! (__dummy_A30_0T12@1__ (optget fresh_T@T_0 (optsome fresh_T@T_1 fresh_T@U_2)) (optsome fresh_T@T_0 fresh_T@U_1)) :named Dummy_A30_0T12@1 ))
(declare-fun __dummy_A30_0T12@2__ (T@U T@U T@U) Bool)
(assert (! (__dummy_A30_0T12@2__ (optget fresh_T@T_0 (optsome fresh_T@T_1 fresh_T@U_2)) (optsome fresh_T@T_0 fresh_T@U_0) (optsome fresh_T@T_0 fresh_T@U_1)) :named Dummy_A30_0T12@2 ))
(declare-fun __dummy_A30_0T14@0__ (T@U T@U T@U T@U) Bool)
(assert (! (__dummy_A30_0T14@0__ (optget fresh_T@T_0 fresh_T@U_0) (optget fresh_T@T_0 fresh_T@U_1) (optsome fresh_T@T_0 fresh_T@U_2) (optsome fresh_T@T_0 (optnone fresh_T@T_0))) :named Dummy_A30_0T14@0 ))
(declare-fun __dummy_A30_0T14@1__ (T@U T@U T@U) Bool)
(assert (! (__dummy_A30_0T14@1__ (optget fresh_T@T_0 fresh_T@U_1) (optsome fresh_T@T_0 (optnone fresh_T@T_1)) (optsome fresh_T@T_1 fresh_T@U_1)) :named Dummy_A30_0T14@1 ))
(declare-fun __dummy_A30_0T14@2__ (T@U T@U T@U T@U) Bool)
(assert (! (__dummy_A30_0T14@2__ (optget fresh_T@T_0 fresh_T@U_0) (optget fresh_T@T_0 fresh_T@U_1) (optsome fresh_T@T_0 (optnone fresh_T@T_1)) (optsome fresh_T@T_1 fresh_T@U_1)) :named Dummy_A30_0T14@2 ))
(declare-fun __dummy_A30_0T14@3__ (T@U T@U T@U T@U) Bool)
(assert (! (__dummy_A30_0T14@3__ (optget fresh_T@T_0 fresh_T@U_0) (optget fresh_T@T_0 fresh_T@U_1) (optsome fresh_T@T_0 (optnone fresh_T@T_1)) (optsome fresh_T@T_1 fresh_T@U_0)) :named Dummy_A30_0T14@3 ))
(declare-fun __dummy_A30_0T15@0__ (T@U T@U T@U T@U) Bool)
(assert (! (__dummy_A30_0T15@0__ (optget fresh_T@T_0 fresh_T@U_1) (optget fresh_T@T_0 fresh_T@U_2) (optsome fresh_T@T_0 (optnone fresh_T@T_1)) (optsome fresh_T@T_1 fresh_T@U_0)) :named Dummy_A30_0T15@0 ))
(declare-fun __dummy_A30_0T16@1__ (T@U T@U) Bool)
(assert (! (__dummy_A30_0T16@1__ (optget fresh_T@T_0 fresh_T@U_1) (optsome fresh_T@T_0 (optsome fresh_T@T_1 fresh_T@U_1))) :named Dummy_A30_0T16@1 ))
(declare-fun __dummy_A30_0T16@2__ (T@U T@U T@U) Bool)
(assert (! (__dummy_A30_0T16@2__ (optget fresh_T@T_0 fresh_T@U_0) (optget fresh_T@T_0 fresh_T@U_1) (optsome fresh_T@T_0 (optsome fresh_T@T_1 fresh_T@U_1))) :named Dummy_A30_0T16@2 ))
(declare-fun __dummy_A30_0T17@0__ (T@U T@U T@U) Bool)
(assert (! (__dummy_A30_0T17@0__ (optget fresh_T@T_0 fresh_T@U_1) (optget fresh_T@T_0 fresh_T@U_2) (optsome fresh_T@T_0 (optsome fresh_T@T_1 fresh_T@U_0))) :named Dummy_A30_0T17@0 ))
(declare-fun __dummy_A30_0T21@0__ (T@U T@U T@U) Bool)
(assert (! (__dummy_A30_0T21@0__ (optget fresh_T@T_0 fresh_T@U_0) (optsome fresh_T@T_0 fresh_T@U_1) (optsome fresh_T@T_0 (optnone fresh_T@T_0))) :named Dummy_A30_0T21@0 ))
(declare-fun __dummy_A30_0T21@1__ (T@U T@U T@U) Bool)
(assert (! (__dummy_A30_0T21@1__ (optget fresh_T@T_0 fresh_T@U_1) (optsome fresh_T@T_0 (optnone fresh_T@T_1)) (optsome fresh_T@T_1 fresh_T@U_0)) :named Dummy_A30_0T21@1 ))
(declare-fun __dummy_A30_0T23@0__ (T@U T@U) Bool)
(assert (! (__dummy_A30_0T23@0__ (optget fresh_T@T_0 fresh_T@U_0) (optsome fresh_T@T_0 (optsome fresh_T@T_0 fresh_T@U_1))) :named Dummy_A30_0T23@0 ))
(declare-fun __dummy_A30_0T23@1__ (T@U T@U) Bool)
(assert (! (__dummy_A30_0T23@1__ (optget fresh_T@T_0 fresh_T@U_1) (optsome fresh_T@T_0 (optsome fresh_T@T_1 fresh_T@U_0))) :named Dummy_A30_0T23@1 ))
(declare-fun __dummy_A30_0T25@1__ (T@U T@U T@U) Bool)
(assert (! (__dummy_A30_0T25@1__ (optget fresh_T@T_0 fresh_T@U_0) (optget fresh_T@T_0 fresh_T@U_1) (optsome fresh_T@T_0 fresh_T@U_1)) :named Dummy_A30_0T25@1 ))
(declare-fun __dummy_A30_0T27@0__ (T@U T@U) Bool)
(assert (! (__dummy_A30_0T27@0__ (optget fresh_T@T_0 (optnone fresh_T@T_0)) (optsome fresh_T@T_0 fresh_T@U_1)) :named Dummy_A30_0T27@0 ))
(declare-fun __dummy_A30_0T28@0__ (T@U T@U) Bool)
(assert (! (__dummy_A30_0T28@0__ (optget fresh_T@T_0 (optsome fresh_T@T_1 fresh_T@U_1)) (optsome fresh_T@T_0 fresh_T@U_1)) :named Dummy_A30_0T28@0 ))
(declare-fun __dummy_A30_0T28@1__ (T@U T@U) Bool)
(assert (! (__dummy_A30_0T28@1__ (optget fresh_T@T_0 (optsome fresh_T@T_0 fresh_T@U_0)) (optsome fresh_T@T_0 fresh_T@U_1)) :named Dummy_A30_0T28@1 ))
(declare-fun __dummy_A30_0T2@0__ (T@U T@U T@U) Bool)
(assert (! (__dummy_A30_0T2@0__ (optget fresh_T@T_0 fresh_T@U_0) (optsome fresh_T@T_0 fresh_T@U_0) (optsome fresh_T@T_0 fresh_T@U_1)) :named Dummy_A30_0T2@0 ))
(declare-fun __dummy_A30_0T2@2__ (T@U T@U T@U) Bool)
(assert (! (__dummy_A30_0T2@2__ (optget fresh_T@T_0 fresh_T@U_1) (optsome fresh_T@T_0 fresh_T@U_0) (optsome fresh_T@T_0 fresh_T@U_2)) :named Dummy_A30_0T2@2 ))
(declare-fun __dummy_A30_0T31@0__ (T@U T@U) Bool)
(assert (! (__dummy_A30_0T31@0__ (optsome fresh_T@T_0 fresh_T@U_1) (optsome fresh_T@T_0 (optget fresh_T@T_0 fresh_T@U_0))) :named Dummy_A30_0T31@0 ))
(declare-fun __dummy_A30_0T31@1__ (T@U T@U) Bool)
(assert (! (__dummy_A30_0T31@1__ (optsome fresh_T@T_0 fresh_T@U_1) (optsome fresh_T@T_0 (optget fresh_T@T_0 fresh_T@U_1))) :named Dummy_A30_0T31@1 ))
(declare-fun __dummy_A30_0T35@0__ (T@U T@U T@U) Bool)
(assert (! (__dummy_A30_0T35@0__ (optget fresh_T@T_0 (optnone fresh_T@T_0)) (optsome fresh_T@T_0 fresh_T@U_0) (optsome fresh_T@T_0 (optnone fresh_T@T_0))) :named Dummy_A30_0T35@0 ))
(declare-fun __dummy_A30_0T35@1__ (T@U T@U T@U) Bool)
(assert (! (__dummy_A30_0T35@1__ (optget fresh_T@T_0 (optnone fresh_T@T_1)) (optsome fresh_T@T_0 (optnone fresh_T@T_1)) (optsome fresh_T@T_1 fresh_T@U_0)) :named Dummy_A30_0T35@1 ))
(declare-fun __dummy_A30_0T36@0__ (T@U T@U) Bool)
(assert (! (__dummy_A30_0T36@0__ (optget fresh_T@T_0 (optsome fresh_T@T_0 fresh_T@U_0)) (optsome fresh_T@T_0 (optnone fresh_T@T_0))) :named Dummy_A30_0T36@0 ))
(declare-fun __dummy_A30_0T36@1__ (T@U T@U) Bool)
(assert (! (__dummy_A30_0T36@1__ (optget fresh_T@T_0 (optsome fresh_T@T_1 fresh_T@U_0)) (optsome fresh_T@T_0 (optnone fresh_T@T_1))) :named Dummy_A30_0T36@1 ))
(declare-fun __dummy_A30_0T37@0__ (T@U T@U) Bool)
(assert (! (__dummy_A30_0T37@0__ (optget fresh_T@T_0 (optnone fresh_T@T_0)) (optsome fresh_T@T_0 (optsome fresh_T@T_0 fresh_T@U_0))) :named Dummy_A30_0T37@0 ))
(declare-fun __dummy_A30_0T37@1__ (T@U T@U) Bool)
(assert (! (__dummy_A30_0T37@1__ (optget fresh_T@T_0 (optnone fresh_T@T_1)) (optsome fresh_T@T_0 (optsome fresh_T@T_1 fresh_T@U_0))) :named Dummy_A30_0T37@1 ))
(declare-fun __dummy_A30_0T38@0__ (T@U T@U) Bool)
(assert (! (__dummy_A30_0T38@0__ (optget fresh_T@T_0 (optsome fresh_T@T_0 fresh_T@U_0)) (optsome fresh_T@T_0 (optsome fresh_T@T_0 fresh_T@U_0))) :named Dummy_A30_0T38@0 ))
(declare-fun __dummy_A30_0T38@1__ (T@U T@U) Bool)
(assert (! (__dummy_A30_0T38@1__ (optget fresh_T@T_0 (optsome fresh_T@T_1 fresh_T@U_0)) (optsome fresh_T@T_0 (optsome fresh_T@T_1 fresh_T@U_0))) :named Dummy_A30_0T38@1 ))
(declare-fun __dummy_A30_0T39@0__ (T@U T@U) Bool)
(assert (! (__dummy_A30_0T39@0__ (optget fresh_T@T_0 fresh_T@U_0) (optsome fresh_T@T_0 (optnone fresh_T@T_0))) :named Dummy_A30_0T39@0 ))
(declare-fun __dummy_A30_0T39@1__ (T@U T@U T@U) Bool)
(assert (! (__dummy_A30_0T39@1__ (optget fresh_T@T_0 fresh_T@U_0) (optget fresh_T@T_0 fresh_T@U_1) (optsome fresh_T@T_0 (optnone fresh_T@T_0))) :named Dummy_A30_0T39@1 ))
(declare-fun __dummy_A30_0T41@0__ (T@U T@U T@U) Bool)
(assert (! (__dummy_A30_0T41@0__ (optget fresh_T@T_0 fresh_T@U_0) (optget fresh_T@T_0 fresh_T@U_2) (optsome fresh_T@T_0 (optsome fresh_T@T_0 (optsome fresh_T@T_0 fresh_T@U_1)))) :named Dummy_A30_0T41@0 ))
(declare-fun __dummy_A30_0T41@1__ (T@U T@U) Bool)
(assert (! (__dummy_A30_0T41@1__ (optget fresh_T@T_0 fresh_T@U_1) (optsome fresh_T@T_0 (optsome fresh_T@T_0 (optsome fresh_T@T_0 fresh_T@U_0)))) :named Dummy_A30_0T41@1 ))
(declare-fun __dummy_A30_0T42@0__ (T@U T@U T@U) Bool)
(assert (! (__dummy_A30_0T42@0__ (optget fresh_T@T_0 fresh_T@U_0) (optget fresh_T@T_0 fresh_T@U_1) (optsome fresh_T@T_0 (optsome fresh_T@T_0 (optsome fresh_T@T_0 fresh_T@U_0)))) :named Dummy_A30_0T42@0 ))
(declare-fun __dummy_A30_0T43@0__ (T@U T@U) Bool)
(assert (! (__dummy_A30_0T43@0__ (optsome fresh_T@T_0 fresh_T@U_0) (optsome fresh_T@T_0 (optget fresh_T@T_0 (optnone fresh_T@T_0)))) :named Dummy_A30_0T43@0 ))
(declare-fun __dummy_A30_0T4@0__ (T@U T@U T@U) Bool)
(assert (! (__dummy_A30_0T4@0__ (optget fresh_T@T_0 fresh_T@U_0) (optget fresh_T@T_0 fresh_T@U_1) (optsome fresh_T@T_0 fresh_T@U_0)) :named Dummy_A30_0T4@0 ))
(declare-fun __dummy_A30_0T4@3__ (T@U T@U T@U) Bool)
(assert (! (__dummy_A30_0T4@3__ (optget fresh_T@T_0 fresh_T@U_1) (optget fresh_T@T_0 fresh_T@U_2) (optsome fresh_T@T_0 fresh_T@U_0)) :named Dummy_A30_0T4@3 ))
(declare-fun __dummy_A30_0T50@0__ (T@U T@U) Bool)
(assert (! (__dummy_A30_0T50@0__ (optget fresh_T@T_0 (optnone fresh_T@T_0)) (optsome fresh_T@T_0 (optnone fresh_T@T_0))) :named Dummy_A30_0T50@0 ))
(declare-fun __dummy_A30_0T51@0__ (T@U T@U) Bool)
(assert (! (__dummy_A30_0T51@0__ (optget fresh_T@T_0 (optnone fresh_T@T_0)) (optsome fresh_T@T_0 (optsome fresh_T@T_0 (optsome fresh_T@T_0 fresh_T@U_0)))) :named Dummy_A30_0T51@0 ))
(declare-fun __dummy_A30_0T6@1__ (T@U T@U T@U) Bool)
(assert (! (__dummy_A30_0T6@1__ (optget fresh_T@T_0 fresh_T@U_1) (optsome fresh_T@T_0 (optget fresh_T@T_1 fresh_T@U_1)) (optsome fresh_T@T_1 fresh_T@U_1)) :named Dummy_A30_0T6@1 ))
(declare-fun __dummy_A30_1T10@0__ (T@U T@U T@U T@U) Bool)
(assert (! (__dummy_A30_1T10@0__ (optget fresh_T@T_0 (optnone fresh_T@T_0)) (optsome fresh_T@T_0 fresh_T@U_0) (optsome fresh_T@T_0 fresh_T@U_1) (optsome fresh_T@T_0 fresh_T@U_2)) :named Dummy_A30_1T10@0 ))
(declare-fun __dummy_A30_1T10@1__ (T@U T@U T@U) Bool)
(assert (! (__dummy_A30_1T10@1__ (optget fresh_T@T_0 (optnone fresh_T@T_1)) (optsome fresh_T@T_0 fresh_T@U_1) (optsome fresh_T@T_1 fresh_T@U_1)) :named Dummy_A30_1T10@1 ))
(declare-fun __dummy_A30_1T10@2__ (T@U T@U T@U T@U) Bool)
(assert (! (__dummy_A30_1T10@2__ (optget fresh_T@T_0 (optnone fresh_T@T_1)) (optsome fresh_T@T_0 fresh_T@U_0) (optsome fresh_T@T_0 fresh_T@U_1) (optsome fresh_T@T_1 fresh_T@U_1)) :named Dummy_A30_1T10@2 ))
(check-sat)